[VALIDATOR STDOUT]
Type-checking pick-package
...action passes type checking.
Type-checking drop-package
...action passes type checking.
Type-checking move
...action passes type checking.
Checking plan: /home/jfan5/Safety-gen/runs/benchmark/optic/delivery_20260215_225923/delivery/optic_results/delivery_size34_packages1_seed34001.plan
Plan to validate:

Plan size: 252
1:
(move t1 c_6_29 c_6_30)
 
2:
(move t1 c_6_30 c_6_31)
 
3:
(move t1 c_6_31 c_7_31)
 
4:
(move t1 c_7_31 c_8_31)
 
5:
(move t1 c_8_31 c_9_31)
 
6:
(move t1 c_9_31 c_10_31)
 
7:
(move t1 c_10_31 c_11_31)
 
8:
(move t1 c_11_31 c_12_31)
 
9:
(move t1 c_12_31 c_13_31)
 
10:
(move t1 c_13_31 c_14_31)
 
11:
(move t1 c_14_31 c_15_31)
 
12:
(move t1 c_15_31 c_16_31)
 
13:
(move t1 c_16_31 c_17_31)
 
14:
(move t1 c_17_31 c_18_31)
 
15:
(move t1 c_18_31 c_18_30)
 
16:
(move t1 c_18_30 c_18_29)
 
17:
(move t1 c_18_29 c_18_28)
 
18:
(move t1 c_18_28 c_18_27)
 
19:
(move t1 c_18_27 c_18_26)
 
20:
(move t1 c_18_26 c_18_25)
 
21:
(move t1 c_18_25 c_18_24)
 
22:
(move t1 c_18_24 c_18_23)
 
23:
(move t1 c_18_23 c_18_22)
 
24:
(move t1 c_18_22 c_18_21)
 
25:
(move t1 c_18_21 c_18_20)
 
26:
(move t1 c_18_20 c_18_19)
 
27:
(move t1 c_18_19 c_18_18)
 
28:
(move t1 c_18_18 c_18_17)
 
29:
(move t1 c_18_17 c_18_16)
 
30:
(move t1 c_18_16 c_18_15)
 
31:
(move t1 c_18_15 c_18_14)
 
32:
(move t1 c_18_14 c_18_13)
 
33:
(move t1 c_18_13 c_18_12)
 
34:
(move t1 c_18_12 c_18_11)
 
35:
(move t1 c_18_11 c_18_10)
 
36:
(move t1 c_18_10 c_18_9)
 
37:
(move t1 c_18_9 c_18_8)
 
38:
(move t1 c_18_8 c_18_7)
 
39:
(move t1 c_18_7 c_18_6)
 
40:
(move t1 c_18_6 c_18_5)
 
41:
(move t1 c_18_5 c_18_4)
 
42:
(move t1 c_18_4 c_18_3)
 
43:
(move t1 c_18_3 c_18_2)
 
44:
(move t1 c_18_2 c_19_2)
 
45:
(move t1 c_19_2 c_20_2)
 
46:
(move t1 c_20_2 c_21_2)
 
47:
(move t1 c_21_2 c_22_2)
 
48:
(move t1 c_22_2 c_23_2)
 
49:
(move t1 c_23_2 c_24_2)
 
50:
(move t1 c_24_2 c_25_2)
 
51:
(move t1 c_25_2 c_26_2)
 
52:
(move t1 c_26_2 c_27_2)
 
53:
(move t1 c_27_2 c_28_2)
 
54:
(move t1 c_28_2 c_29_2)
 
55:
(move t1 c_29_2 c_30_2)
 
56:
(move t1 c_30_2 c_31_2)
 
57:
(move t1 c_31_2 c_32_2)
 
58:
(move t1 c_32_2 c_33_2)
 
59:
(pick-package t1 p1 c_33_2)
 
60:
(move t1 c_33_2 c_32_2)
 
61:
(move t1 c_32_2 c_31_2)
 
62:
(move t1 c_31_2 c_30_2)
 
63:
(move t1 c_30_2 c_29_2)
 
64:
(move t1 c_29_2 c_28_2)
 
65:
(move t1 c_28_2 c_27_2)
 
66:
(move t1 c_27_2 c_26_2)
 
67:
(move t1 c_26_2 c_25_2)
 
68:
(move t1 c_25_2 c_24_2)
 
69:
(move t1 c_24_2 c_23_2)
 
70:
(move t1 c_23_2 c_22_2)
 
71:
(move t1 c_22_2 c_21_2)
 
72:
(move t1 c_21_2 c_20_2)
 
73:
(move t1 c_20_2 c_19_2)
 
74:
(move t1 c_19_2 c_18_2)
 
75:
(move t1 c_18_2 c_17_2)
 
76:
(move t1 c_17_2 c_16_2)
 
77:
(move t1 c_16_2 c_15_2)
 
78:
(move t1 c_15_2 c_14_2)
 
79:
(move t1 c_14_2 c_13_2)
 
80:
(move t1 c_13_2 c_13_1)
 
81:
(drop-package t1 p1 c_13_1)
 
82:
(move t1 c_13_1 c_13_0)
 
83:
(pick-package t1 p2 c_13_0)
 
84:
(move t1 c_13_0 c_13_1)
 
85:
(move t1 c_13_1 c_13_2)
 
86:
(drop-package t1 p2 c_13_2)
 
87:
(move t1 c_13_2 c_13_1)
 
88:
(pick-package t1 p1 c_13_1)
 
89:
(move t1 c_13_1 c_13_2)
 
90:
(move t1 c_13_2 c_13_3)
 
91:
(drop-package t1 p1 c_13_3)
 
92:
(move t1 c_13_3 c_13_2)
 
93:
(pick-package t1 p2 c_13_2)
 
94:
(move t1 c_13_2 c_13_3)
 
95:
(move t1 c_13_3 c_13_4)
 
96:
(drop-package t1 p2 c_13_4)
 
97:
(move t1 c_13_4 c_13_3)
 
98:
(pick-package t1 p1 c_13_3)
 
99:
(move t1 c_13_3 c_13_4)
 
100:
(move t1 c_13_4 c_13_5)
 
101:
(drop-package t1 p1 c_13_5)
 
102:
(move t1 c_13_5 c_13_4)
 
103:
(pick-package t1 p2 c_13_4)
 
104:
(move t1 c_13_4 c_13_5)
 
105:
(move t1 c_13_5 c_13_6)
 
106:
(drop-package t1 p2 c_13_6)
 
107:
(move t1 c_13_6 c_13_5)
 
108:
(pick-package t1 p1 c_13_5)
 
109:
(move t1 c_13_5 c_13_6)
 
110:
(move t1 c_13_6 c_13_7)
 
111:
(drop-package t1 p1 c_13_7)
 
112:
(move t1 c_13_7 c_13_6)
 
113:
(pick-package t1 p2 c_13_6)
 
114:
(move t1 c_13_6 c_13_7)
 
115:
(move t1 c_13_7 c_13_8)
 
116:
(drop-package t1 p2 c_13_8)
 
117:
(move t1 c_13_8 c_13_7)
 
118:
(pick-package t1 p1 c_13_7)
 
119:
(move t1 c_13_7 c_13_8)
 
120:
(move t1 c_13_8 c_13_9)
 
121:
(drop-package t1 p1 c_13_9)
 
122:
(move t1 c_13_9 c_13_8)
 
123:
(pick-package t1 p2 c_13_8)
 
124:
(move t1 c_13_8 c_13_9)
 
125:
(move t1 c_13_9 c_13_10)
 
126:
(drop-package t1 p2 c_13_10)
 
127:
(move t1 c_13_10 c_13_9)
 
128:
(pick-package t1 p1 c_13_9)
 
129:
(move t1 c_13_9 c_13_10)
 
130:
(move t1 c_13_10 c_13_11)
 
131:
(drop-package t1 p1 c_13_11)
 
132:
(move t1 c_13_11 c_13_10)
 
133:
(pick-package t1 p2 c_13_10)
 
134:
(move t1 c_13_10 c_13_11)
 
135:
(move t1 c_13_11 c_13_12)
 
136:
(drop-package t1 p2 c_13_12)
 
137:
(move t1 c_13_12 c_13_11)
 
138:
(pick-package t1 p1 c_13_11)
 
139:
(move t1 c_13_11 c_13_12)
 
140:
(move t1 c_13_12 c_13_13)
 
141:
(drop-package t1 p1 c_13_13)
 
142:
(move t1 c_13_13 c_13_12)
 
143:
(pick-package t1 p2 c_13_12)
 
144:
(move t1 c_13_12 c_13_13)
 
145:
(move t1 c_13_13 c_13_14)
 
146:
(drop-package t1 p2 c_13_14)
 
147:
(move t1 c_13_14 c_13_13)
 
148:
(pick-package t1 p1 c_13_13)
 
149:
(move t1 c_13_13 c_13_14)
 
150:
(move t1 c_13_14 c_13_15)
 
151:
(drop-package t1 p1 c_13_15)
 
152:
(move t1 c_13_15 c_13_14)
 
153:
(pick-package t1 p2 c_13_14)
 
154:
(move t1 c_13_14 c_13_15)
 
155:
(move t1 c_13_15 c_13_16)
 
156:
(drop-package t1 p2 c_13_16)
 
157:
(move t1 c_13_16 c_13_15)
 
158:
(pick-package t1 p1 c_13_15)
 
159:
(move t1 c_13_15 c_13_16)
 
160:
(move t1 c_13_16 c_13_17)
 
161:
(drop-package t1 p1 c_13_17)
 
162:
(move t1 c_13_17 c_13_16)
 
163:
(pick-package t1 p2 c_13_16)
 
164:
(move t1 c_13_16 c_13_17)
 
165:
(move t1 c_13_17 c_13_18)
 
166:
(drop-package t1 p2 c_13_18)
 
167:
(move t1 c_13_18 c_13_17)
 
168:
(pick-package t1 p1 c_13_17)
 
169:
(move t1 c_13_17 c_13_18)
 
170:
(move t1 c_13_18 c_13_19)
 
171:
(drop-package t1 p1 c_13_19)
 
172:
(move t1 c_13_19 c_13_18)
 
173:
(pick-package t1 p2 c_13_18)
 
174:
(move t1 c_13_18 c_13_19)
 
175:
(move t1 c_13_19 c_13_20)
 
176:
(drop-package t1 p2 c_13_20)
 
177:
(move t1 c_13_20 c_13_19)
 
178:
(pick-package t1 p1 c_13_19)
 
179:
(move t1 c_13_19 c_13_20)
 
180:
(move t1 c_13_20 c_13_21)
 
181:
(drop-package t1 p1 c_13_21)
 
182:
(move t1 c_13_21 c_13_20)
 
183:
(pick-package t1 p2 c_13_20)
 
184:
(move t1 c_13_20 c_13_21)
 
185:
(move t1 c_13_21 c_13_22)
 
186:
(drop-package t1 p2 c_13_22)
 
187:
(move t1 c_13_22 c_13_21)
 
188:
(pick-package t1 p1 c_13_21)
 
189:
(move t1 c_13_21 c_13_22)
 
190:
(move t1 c_13_22 c_13_23)
 
191:
(drop-package t1 p1 c_13_23)
 
192:
(move t1 c_13_23 c_13_22)
 
193:
(pick-package t1 p2 c_13_22)
 
194:
(move t1 c_13_22 c_13_23)
 
195:
(move t1 c_13_23 c_13_24)
 
196:
(drop-package t1 p2 c_13_24)
 
197:
(move t1 c_13_24 c_13_23)
 
198:
(pick-package t1 p1 c_13_23)
 
199:
(move t1 c_13_23 c_13_24)
 
200:
(move t1 c_13_24 c_13_25)
 
201:
(drop-package t1 p1 c_13_25)
 
202:
(move t1 c_13_25 c_13_24)
 
203:
(pick-package t1 p2 c_13_24)
 
204:
(move t1 c_13_24 c_13_25)
 
205:
(move t1 c_13_25 c_13_26)
 
206:
(drop-package t1 p2 c_13_26)
 
207:
(move t1 c_13_26 c_13_25)
 
208:
(pick-package t1 p1 c_13_25)
 
209:
(move t1 c_13_25 c_13_26)
 
210:
(move t1 c_13_26 c_13_27)
 
211:
(drop-package t1 p1 c_13_27)
 
212:
(move t1 c_13_27 c_13_26)
 
213:
(pick-package t1 p2 c_13_26)
 
214:
(move t1 c_13_26 c_13_27)
 
215:
(move t1 c_13_27 c_13_28)
 
216:
(drop-package t1 p2 c_13_28)
 
217:
(move t1 c_13_28 c_13_27)
 
218:
(pick-package t1 p1 c_13_27)
 
219:
(move t1 c_13_27 c_13_28)
 
220:
(move t1 c_13_28 c_13_29)
 
221:
(drop-package t1 p1 c_13_29)
 
222:
(move t1 c_13_29 c_13_28)
 
223:
(pick-package t1 p2 c_13_28)
 
224:
(move t1 c_13_28 c_13_29)
 
225:
(move t1 c_13_29 c_13_30)
 
226:
(drop-package t1 p2 c_13_30)
 
227:
(move t1 c_13_30 c_13_29)
 
228:
(pick-package t1 p1 c_13_29)
 
229:
(move t1 c_13_29 c_13_30)
 
230:
(move t1 c_13_30 c_13_31)
 
231:
(drop-package t1 p1 c_13_31)
 
232:
(move t1 c_13_31 c_13_30)
 
233:
(pick-package t1 p2 c_13_30)
 
234:
(move t1 c_13_30 c_13_31)
 
235:
(move t1 c_13_31 c_14_31)
 
236:
(move t1 c_14_31 c_15_31)
 
237:
(move t1 c_15_31 c_16_31)
 
238:
(move t1 c_16_31 c_17_31)
 
239:
(move t1 c_17_31 c_18_31)
 
240:
(drop-package t1 p2 c_18_31)
 
241:
(move t1 c_18_31 c_17_31)
 
242:
(move t1 c_17_31 c_16_31)
 
243:
(move t1 c_16_31 c_15_31)
 
244:
(move t1 c_15_31 c_14_31)
 
245:
(move t1 c_14_31 c_13_31)
 
246:
(pick-package t1 p1 c_13_31)
 
247:
(move t1 c_13_31 c_14_31)
 
248:
(move t1 c_14_31 c_15_31)
 
249:
(move t1 c_15_31 c_16_31)
 
250:
(move t1 c_16_31 c_17_31)
 
251:
(move t1 c_17_31 c_18_31)
 
252:
(drop-package t1 p1 c_18_31)
 

Plan Validation details
-----------------------

Checking next happening (time 1)
Deleting (at t1 c_6_29)
Adding (at t1 c_6_30)

Checking next happening (time 2)
Deleting (at t1 c_6_30)
Adding (at t1 c_6_31)

Checking next happening (time 3)
Deleting (at t1 c_6_31)
Adding (at t1 c_7_31)

Checking next happening (time 4)
Deleting (at t1 c_7_31)
Adding (at t1 c_8_31)

Checking next happening (time 5)
Deleting (at t1 c_8_31)
Adding (at t1 c_9_31)

Checking next happening (time 6)
Deleting (at t1 c_9_31)
Adding (at t1 c_10_31)

Checking next happening (time 7)
Deleting (at t1 c_10_31)
Adding (at t1 c_11_31)

Checking next happening (time 8)
Deleting (at t1 c_11_31)
Adding (at t1 c_12_31)

Checking next happening (time 9)
Deleting (at t1 c_12_31)
Adding (at t1 c_13_31)

Checking next happening (time 10)
Deleting (at t1 c_13_31)
Adding (at t1 c_14_31)

Checking next happening (time 11)
Deleting (at t1 c_14_31)
Adding (at t1 c_15_31)

Checking next happening (time 12)
Deleting (at t1 c_15_31)
Adding (at t1 c_16_31)

Checking next happening (time 13)
Deleting (at t1 c_16_31)
Adding (at t1 c_17_31)

Checking next happening (time 14)
Deleting (at t1 c_17_31)
Adding (at t1 c_18_31)

Checking next happening (time 15)
Deleting (at t1 c_18_31)
Adding (at t1 c_18_30)

Checking next happening (time 16)
Deleting (at t1 c_18_30)
Adding (at t1 c_18_29)

Checking next happening (time 17)
Deleting (at t1 c_18_29)
Adding (at t1 c_18_28)

Checking next happening (time 18)
Deleting (at t1 c_18_28)
Adding (at t1 c_18_27)

Checking next happening (time 19)
Deleting (at t1 c_18_27)
Adding (at t1 c_18_26)

Checking next happening (time 20)
Deleting (at t1 c_18_26)
Adding (at t1 c_18_25)

Checking next happening (time 21)
Deleting (at t1 c_18_25)
Adding (at t1 c_18_24)

Checking next happening (time 22)
Deleting (at t1 c_18_24)
Adding (at t1 c_18_23)

Checking next happening (time 23)
Deleting (at t1 c_18_23)
Adding (at t1 c_18_22)

Checking next happening (time 24)
Deleting (at t1 c_18_22)
Adding (at t1 c_18_21)

Checking next happening (time 25)
Deleting (at t1 c_18_21)
Adding (at t1 c_18_20)

Checking next happening (time 26)
Deleting (at t1 c_18_20)
Adding (at t1 c_18_19)

Checking next happening (time 27)
Deleting (at t1 c_18_19)
Adding (at t1 c_18_18)

Checking next happening (time 28)
Deleting (at t1 c_18_18)
Adding (at t1 c_18_17)

Checking next happening (time 29)
Deleting (at t1 c_18_17)
Adding (at t1 c_18_16)

Checking next happening (time 30)
Deleting (at t1 c_18_16)
Adding (at t1 c_18_15)

Checking next happening (time 31)
Deleting (at t1 c_18_15)
Adding (at t1 c_18_14)

Checking next happening (time 32)
Deleting (at t1 c_18_14)
Adding (at t1 c_18_13)

Checking next happening (time 33)
Deleting (at t1 c_18_13)
Adding (at t1 c_18_12)

Checking next happening (time 34)
Deleting (at t1 c_18_12)
Adding (at t1 c_18_11)

Checking next happening (time 35)
Deleting (at t1 c_18_11)
Adding (at t1 c_18_10)

Checking next happening (time 36)
Deleting (at t1 c_18_10)
Adding (at t1 c_18_9)

Checking next happening (time 37)
Deleting (at t1 c_18_9)
Adding (at t1 c_18_8)

Checking next happening (time 38)
Deleting (at t1 c_18_8)
Adding (at t1 c_18_7)

Checking next happening (time 39)
Deleting (at t1 c_18_7)
Adding (at t1 c_18_6)

Checking next happening (time 40)
Deleting (at t1 c_18_6)
Adding (at t1 c_18_5)

Checking next happening (time 41)
Deleting (at t1 c_18_5)
Adding (at t1 c_18_4)

Checking next happening (time 42)
Deleting (at t1 c_18_4)
Adding (at t1 c_18_3)

Checking next happening (time 43)
Deleting (at t1 c_18_3)
Adding (at t1 c_18_2)

Checking next happening (time 44)
Deleting (at t1 c_18_2)
Adding (at t1 c_19_2)

Checking next happening (time 45)
Deleting (at t1 c_19_2)
Adding (at t1 c_20_2)

Checking next happening (time 46)
Deleting (at t1 c_20_2)
Adding (at t1 c_21_2)

Checking next happening (time 47)
Deleting (at t1 c_21_2)
Adding (at t1 c_22_2)

Checking next happening (time 48)
Deleting (at t1 c_22_2)
Adding (at t1 c_23_2)

Checking next happening (time 49)
Deleting (at t1 c_23_2)
Adding (at t1 c_24_2)

Checking next happening (time 50)
Deleting (at t1 c_24_2)
Adding (at t1 c_25_2)

Checking next happening (time 51)
Deleting (at t1 c_25_2)
Adding (at t1 c_26_2)

Checking next happening (time 52)
Deleting (at t1 c_26_2)
Adding (at t1 c_27_2)

Checking next happening (time 53)
Deleting (at t1 c_27_2)
Adding (at t1 c_28_2)

Checking next happening (time 54)
Deleting (at t1 c_28_2)
Adding (at t1 c_29_2)

Checking next happening (time 55)
Deleting (at t1 c_29_2)
Adding (at t1 c_30_2)

Checking next happening (time 56)
Deleting (at t1 c_30_2)
Adding (at t1 c_31_2)

Checking next happening (time 57)
Deleting (at t1 c_31_2)
Adding (at t1 c_32_2)

Checking next happening (time 58)
Deleting (at t1 c_32_2)
Adding (at t1 c_33_2)

Checking next happening (time 59)
Deleting (at p1 c_33_2)
Deleting (empty t1)
Adding (carrying t1 p1)

Checking next happening (time 60)
Deleting (at t1 c_33_2)
Adding (at t1 c_32_2)

Checking next happening (time 61)
Deleting (at t1 c_32_2)
Adding (at t1 c_31_2)

Checking next happening (time 62)
Deleting (at t1 c_31_2)
Adding (at t1 c_30_2)

Checking next happening (time 63)
Deleting (at t1 c_30_2)
Adding (at t1 c_29_2)

Checking next happening (time 64)
Deleting (at t1 c_29_2)
Adding (at t1 c_28_2)

Checking next happening (time 65)
Deleting (at t1 c_28_2)
Adding (at t1 c_27_2)

Checking next happening (time 66)
Deleting (at t1 c_27_2)
Adding (at t1 c_26_2)

Checking next happening (time 67)
Deleting (at t1 c_26_2)
Adding (at t1 c_25_2)

Checking next happening (time 68)
Deleting (at t1 c_25_2)
Adding (at t1 c_24_2)

Checking next happening (time 69)
Deleting (at t1 c_24_2)
Adding (at t1 c_23_2)

Checking next happening (time 70)
Deleting (at t1 c_23_2)
Adding (at t1 c_22_2)

Checking next happening (time 71)
Deleting (at t1 c_22_2)
Adding (at t1 c_21_2)

Checking next happening (time 72)
Deleting (at t1 c_21_2)
Adding (at t1 c_20_2)

Checking next happening (time 73)
Deleting (at t1 c_20_2)
Adding (at t1 c_19_2)

Checking next happening (time 74)
Deleting (at t1 c_19_2)
Adding (at t1 c_18_2)

Checking next happening (time 75)
Deleting (at t1 c_18_2)
Adding (at t1 c_17_2)

Checking next happening (time 76)
Deleting (at t1 c_17_2)
Adding (at t1 c_16_2)

Checking next happening (time 77)
Deleting (at t1 c_16_2)
Adding (at t1 c_15_2)

Checking next happening (time 78)
Deleting (at t1 c_15_2)
Adding (at t1 c_14_2)

Checking next happening (time 79)
Deleting (at t1 c_14_2)
Adding (at t1 c_13_2)

Checking next happening (time 80)
Deleting (at t1 c_13_2)
Adding (at t1 c_13_1)

Checking next happening (time 81)
Deleting (carrying t1 p1)
Adding (empty t1)
Adding (at p1 c_13_1)

Checking next happening (time 82)
Deleting (at t1 c_13_1)
Adding (at t1 c_13_0)

Checking next happening (time 83)
Deleting (at p2 c_13_0)
Deleting (empty t1)
Adding (carrying t1 p2)

Checking next happening (time 84)
Deleting (at t1 c_13_0)
Adding (at t1 c_13_1)

Checking next happening (time 85)
Deleting (at t1 c_13_1)
Adding (at t1 c_13_2)

Checking next happening (time 86)
Deleting (carrying t1 p2)
Adding (empty t1)
Adding (at p2 c_13_2)

Checking next happening (time 87)
Deleting (at t1 c_13_2)
Adding (at t1 c_13_1)

Checking next happening (time 88)
Deleting (at p1 c_13_1)
Deleting (empty t1)
Adding (carrying t1 p1)

Checking next happening (time 89)
Deleting (at t1 c_13_1)
Adding (at t1 c_13_2)

Checking next happening (time 90)
Deleting (at t1 c_13_2)
Adding (at t1 c_13_3)

Checking next happening (time 91)
Deleting (carrying t1 p1)
Adding (empty t1)
Adding (at p1 c_13_3)

Checking next happening (time 92)
Deleting (at t1 c_13_3)
Adding (at t1 c_13_2)

Checking next happening (time 93)
Deleting (at p2 c_13_2)
Deleting (empty t1)
Adding (carrying t1 p2)

Checking next happening (time 94)
Deleting (at t1 c_13_2)
Adding (at t1 c_13_3)

Checking next happening (time 95)
Deleting (at t1 c_13_3)
Adding (at t1 c_13_4)

Checking next happening (time 96)
Deleting (carrying t1 p2)
Adding (empty t1)
Adding (at p2 c_13_4)

Checking next happening (time 97)
Deleting (at t1 c_13_4)
Adding (at t1 c_13_3)

Checking next happening (time 98)
Deleting (at p1 c_13_3)
Deleting (empty t1)
Adding (carrying t1 p1)

Checking next happening (time 99)
Deleting (at t1 c_13_3)
Adding (at t1 c_13_4)

Checking next happening (time 100)
Deleting (at t1 c_13_4)
Adding (at t1 c_13_5)

Checking next happening (time 101)
Deleting (carrying t1 p1)
Adding (empty t1)
Adding (at p1 c_13_5)

Checking next happening (time 102)
Deleting (at t1 c_13_5)
Adding (at t1 c_13_4)

Checking next happening (time 103)
Deleting (at p2 c_13_4)
Deleting (empty t1)
Adding (carrying t1 p2)

Checking next happening (time 104)
Deleting (at t1 c_13_4)
Adding (at t1 c_13_5)

Checking next happening (time 105)
Deleting (at t1 c_13_5)
Adding (at t1 c_13_6)

Checking next happening (time 106)
Deleting (carrying t1 p2)
Adding (empty t1)
Adding (at p2 c_13_6)

Checking next happening (time 107)
Deleting (at t1 c_13_6)
Adding (at t1 c_13_5)

Checking next happening (time 108)
Deleting (at p1 c_13_5)
Deleting (empty t1)
Adding (carrying t1 p1)

Checking next happening (time 109)
Deleting (at t1 c_13_5)
Adding (at t1 c_13_6)

Checking next happening (time 110)
Deleting (at t1 c_13_6)
Adding (at t1 c_13_7)

Checking next happening (time 111)
Deleting (carrying t1 p1)
Adding (empty t1)
Adding (at p1 c_13_7)

Checking next happening (time 112)
Deleting (at t1 c_13_7)
Adding (at t1 c_13_6)

Checking next happening (time 113)
Deleting (at p2 c_13_6)
Deleting (empty t1)
Adding (carrying t1 p2)

Checking next happening (time 114)
Deleting (at t1 c_13_6)
Adding (at t1 c_13_7)

Checking next happening (time 115)
Deleting (at t1 c_13_7)
Adding (at t1 c_13_8)

Checking next happening (time 116)
Deleting (carrying t1 p2)
Adding (empty t1)
Adding (at p2 c_13_8)

Checking next happening (time 117)
Deleting (at t1 c_13_8)
Adding (at t1 c_13_7)

Checking next happening (time 118)
Deleting (at p1 c_13_7)
Deleting (empty t1)
Adding (carrying t1 p1)

Checking next happening (time 119)
Deleting (at t1 c_13_7)
Adding (at t1 c_13_8)

Checking next happening (time 120)
Deleting (at t1 c_13_8)
Adding (at t1 c_13_9)

Checking next happening (time 121)
Deleting (carrying t1 p1)
Adding (empty t1)
Adding (at p1 c_13_9)

Checking next happening (time 122)
Deleting (at t1 c_13_9)
Adding (at t1 c_13_8)

Checking next happening (time 123)
Deleting (at p2 c_13_8)
Deleting (empty t1)
Adding (carrying t1 p2)

Checking next happening (time 124)
Deleting (at t1 c_13_8)
Adding (at t1 c_13_9)

Checking next happening (time 125)
Deleting (at t1 c_13_9)
Adding (at t1 c_13_10)

Checking next happening (time 126)
Deleting (carrying t1 p2)
Adding (empty t1)
Adding (at p2 c_13_10)

Checking next happening (time 127)
Deleting (at t1 c_13_10)
Adding (at t1 c_13_9)

Checking next happening (time 128)
Deleting (at p1 c_13_9)
Deleting (empty t1)
Adding (carrying t1 p1)

Checking next happening (time 129)
Deleting (at t1 c_13_9)
Adding (at t1 c_13_10)

Checking next happening (time 130)
Deleting (at t1 c_13_10)
Adding (at t1 c_13_11)

Checking next happening (time 131)
Deleting (carrying t1 p1)
Adding (empty t1)
Adding (at p1 c_13_11)

Checking next happening (time 132)
Deleting (at t1 c_13_11)
Adding (at t1 c_13_10)

Checking next happening (time 133)
Deleting (at p2 c_13_10)
Deleting (empty t1)
Adding (carrying t1 p2)

Checking next happening (time 134)
Deleting (at t1 c_13_10)
Adding (at t1 c_13_11)

Checking next happening (time 135)
Deleting (at t1 c_13_11)
Adding (at t1 c_13_12)

Checking next happening (time 136)
Deleting (carrying t1 p2)
Adding (empty t1)
Adding (at p2 c_13_12)

Checking next happening (time 137)
Deleting (at t1 c_13_12)
Adding (at t1 c_13_11)

Checking next happening (time 138)
Deleting (at p1 c_13_11)
Deleting (empty t1)
Adding (carrying t1 p1)

Checking next happening (time 139)
Deleting (at t1 c_13_11)
Adding (at t1 c_13_12)

Checking next happening (time 140)
Deleting (at t1 c_13_12)
Adding (at t1 c_13_13)

Checking next happening (time 141)
Deleting (carrying t1 p1)
Adding (empty t1)
Adding (at p1 c_13_13)

Checking next happening (time 142)
Deleting (at t1 c_13_13)
Adding (at t1 c_13_12)

Checking next happening (time 143)
Deleting (at p2 c_13_12)
Deleting (empty t1)
Adding (carrying t1 p2)

Checking next happening (time 144)
Deleting (at t1 c_13_12)
Adding (at t1 c_13_13)

Checking next happening (time 145)
Deleting (at t1 c_13_13)
Adding (at t1 c_13_14)

Checking next happening (time 146)
Deleting (carrying t1 p2)
Adding (empty t1)
Adding (at p2 c_13_14)

Checking next happening (time 147)
Deleting (at t1 c_13_14)
Adding (at t1 c_13_13)

Checking next happening (time 148)
Deleting (at p1 c_13_13)
Deleting (empty t1)
Adding (carrying t1 p1)

Checking next happening (time 149)
Deleting (at t1 c_13_13)
Adding (at t1 c_13_14)

Checking next happening (time 150)
Deleting (at t1 c_13_14)
Adding (at t1 c_13_15)

Checking next happening (time 151)
Deleting (carrying t1 p1)
Adding (empty t1)
Adding (at p1 c_13_15)

Checking next happening (time 152)
Deleting (at t1 c_13_15)
Adding (at t1 c_13_14)

Checking next happening (time 153)
Deleting (at p2 c_13_14)
Deleting (empty t1)
Adding (carrying t1 p2)

Checking next happening (time 154)
Deleting (at t1 c_13_14)
Adding (at t1 c_13_15)

Checking next happening (time 155)
Deleting (at t1 c_13_15)
Adding (at t1 c_13_16)

Checking next happening (time 156)
Deleting (carrying t1 p2)
Adding (empty t1)
Adding (at p2 c_13_16)

Checking next happening (time 157)
Deleting (at t1 c_13_16)
Adding (at t1 c_13_15)

Checking next happening (time 158)
Deleting (at p1 c_13_15)
Deleting (empty t1)
Adding (carrying t1 p1)

Checking next happening (time 159)
Deleting (at t1 c_13_15)
Adding (at t1 c_13_16)

Checking next happening (time 160)
Deleting (at t1 c_13_16)
Adding (at t1 c_13_17)

Checking next happening (time 161)
Deleting (carrying t1 p1)
Adding (empty t1)
Adding (at p1 c_13_17)

Checking next happening (time 162)
Deleting (at t1 c_13_17)
Adding (at t1 c_13_16)

Checking next happening (time 163)
Deleting (at p2 c_13_16)
Deleting (empty t1)
Adding (carrying t1 p2)

Checking next happening (time 164)
Deleting (at t1 c_13_16)
Adding (at t1 c_13_17)

Checking next happening (time 165)
Deleting (at t1 c_13_17)
Adding (at t1 c_13_18)

Checking next happening (time 166)
Deleting (carrying t1 p2)
Adding (empty t1)
Adding (at p2 c_13_18)

Checking next happening (time 167)
Deleting (at t1 c_13_18)
Adding (at t1 c_13_17)

Checking next happening (time 168)
Deleting (at p1 c_13_17)
Deleting (empty t1)
Adding (carrying t1 p1)

Checking next happening (time 169)
Deleting (at t1 c_13_17)
Adding (at t1 c_13_18)

Checking next happening (time 170)
Deleting (at t1 c_13_18)
Adding (at t1 c_13_19)

Checking next happening (time 171)
Deleting (carrying t1 p1)
Adding (empty t1)
Adding (at p1 c_13_19)

Checking next happening (time 172)
Deleting (at t1 c_13_19)
Adding (at t1 c_13_18)

Checking next happening (time 173)
Deleting (at p2 c_13_18)
Deleting (empty t1)
Adding (carrying t1 p2)

Checking next happening (time 174)
Deleting (at t1 c_13_18)
Adding (at t1 c_13_19)

Checking next happening (time 175)
Deleting (at t1 c_13_19)
Adding (at t1 c_13_20)

Checking next happening (time 176)
Deleting (carrying t1 p2)
Adding (empty t1)
Adding (at p2 c_13_20)

Checking next happening (time 177)
Deleting (at t1 c_13_20)
Adding (at t1 c_13_19)

Checking next happening (time 178)
Deleting (at p1 c_13_19)
Deleting (empty t1)
Adding (carrying t1 p1)

Checking next happening (time 179)
Deleting (at t1 c_13_19)
Adding (at t1 c_13_20)

Checking next happening (time 180)
Deleting (at t1 c_13_20)
Adding (at t1 c_13_21)

Checking next happening (time 181)
Deleting (carrying t1 p1)
Adding (empty t1)
Adding (at p1 c_13_21)

Checking next happening (time 182)
Deleting (at t1 c_13_21)
Adding (at t1 c_13_20)

Checking next happening (time 183)
Deleting (at p2 c_13_20)
Deleting (empty t1)
Adding (carrying t1 p2)

Checking next happening (time 184)
Deleting (at t1 c_13_20)
Adding (at t1 c_13_21)

Checking next happening (time 185)
Deleting (at t1 c_13_21)
Adding (at t1 c_13_22)

Checking next happening (time 186)
Deleting (carrying t1 p2)
Adding (empty t1)
Adding (at p2 c_13_22)

Checking next happening (time 187)
Deleting (at t1 c_13_22)
Adding (at t1 c_13_21)

Checking next happening (time 188)
Deleting (at p1 c_13_21)
Deleting (empty t1)
Adding (carrying t1 p1)

Checking next happening (time 189)
Deleting (at t1 c_13_21)
Adding (at t1 c_13_22)

Checking next happening (time 190)
Deleting (at t1 c_13_22)
Adding (at t1 c_13_23)

Checking next happening (time 191)
Deleting (carrying t1 p1)
Adding (empty t1)
Adding (at p1 c_13_23)

Checking next happening (time 192)
Deleting (at t1 c_13_23)
Adding (at t1 c_13_22)

Checking next happening (time 193)
Deleting (at p2 c_13_22)
Deleting (empty t1)
Adding (carrying t1 p2)

Checking next happening (time 194)
Deleting (at t1 c_13_22)
Adding (at t1 c_13_23)

Checking next happening (time 195)
Deleting (at t1 c_13_23)
Adding (at t1 c_13_24)

Checking next happening (time 196)
Deleting (carrying t1 p2)
Adding (empty t1)
Adding (at p2 c_13_24)

Checking next happening (time 197)
Deleting (at t1 c_13_24)
Adding (at t1 c_13_23)

Checking next happening (time 198)
Deleting (at p1 c_13_23)
Deleting (empty t1)
Adding (carrying t1 p1)

Checking next happening (time 199)
Deleting (at t1 c_13_23)
Adding (at t1 c_13_24)

Checking next happening (time 200)
Deleting (at t1 c_13_24)
Adding (at t1 c_13_25)

Checking next happening (time 201)
Deleting (carrying t1 p1)
Adding (empty t1)
Adding (at p1 c_13_25)

Checking next happening (time 202)
Deleting (at t1 c_13_25)
Adding (at t1 c_13_24)

Checking next happening (time 203)
Deleting (at p2 c_13_24)
Deleting (empty t1)
Adding (carrying t1 p2)

Checking next happening (time 204)
Deleting (at t1 c_13_24)
Adding (at t1 c_13_25)

Checking next happening (time 205)
Deleting (at t1 c_13_25)
Adding (at t1 c_13_26)

Checking next happening (time 206)
Deleting (carrying t1 p2)
Adding (empty t1)
Adding (at p2 c_13_26)

Checking next happening (time 207)
Deleting (at t1 c_13_26)
Adding (at t1 c_13_25)

Checking next happening (time 208)
Deleting (at p1 c_13_25)
Deleting (empty t1)
Adding (carrying t1 p1)

Checking next happening (time 209)
Deleting (at t1 c_13_25)
Adding (at t1 c_13_26)

Checking next happening (time 210)
Deleting (at t1 c_13_26)
Adding (at t1 c_13_27)

Checking next happening (time 211)
Deleting (carrying t1 p1)
Adding (empty t1)
Adding (at p1 c_13_27)

Checking next happening (time 212)
Deleting (at t1 c_13_27)
Adding (at t1 c_13_26)

Checking next happening (time 213)
Deleting (at p2 c_13_26)
Deleting (empty t1)
Adding (carrying t1 p2)

Checking next happening (time 214)
Deleting (at t1 c_13_26)
Adding (at t1 c_13_27)

Checking next happening (time 215)
Deleting (at t1 c_13_27)
Adding (at t1 c_13_28)

Checking next happening (time 216)
Deleting (carrying t1 p2)
Adding (empty t1)
Adding (at p2 c_13_28)

Checking next happening (time 217)
Deleting (at t1 c_13_28)
Adding (at t1 c_13_27)

Checking next happening (time 218)
Deleting (at p1 c_13_27)
Deleting (empty t1)
Adding (carrying t1 p1)

Checking next happening (time 219)
Deleting (at t1 c_13_27)
Adding (at t1 c_13_28)

Checking next happening (time 220)
Deleting (at t1 c_13_28)
Adding (at t1 c_13_29)

Checking next happening (time 221)
Deleting (carrying t1 p1)
Adding (empty t1)
Adding (at p1 c_13_29)

Checking next happening (time 222)
Deleting (at t1 c_13_29)
Adding (at t1 c_13_28)

Checking next happening (time 223)
Deleting (at p2 c_13_28)
Deleting (empty t1)
Adding (carrying t1 p2)

Checking next happening (time 224)
Deleting (at t1 c_13_28)
Adding (at t1 c_13_29)

Checking next happening (time 225)
Deleting (at t1 c_13_29)
Adding (at t1 c_13_30)

Checking next happening (time 226)
Deleting (carrying t1 p2)
Adding (empty t1)
Adding (at p2 c_13_30)

Checking next happening (time 227)
Deleting (at t1 c_13_30)
Adding (at t1 c_13_29)

Checking next happening (time 228)
Deleting (at p1 c_13_29)
Deleting (empty t1)
Adding (carrying t1 p1)

Checking next happening (time 229)
Deleting (at t1 c_13_29)
Adding (at t1 c_13_30)

Checking next happening (time 230)
Deleting (at t1 c_13_30)
Adding (at t1 c_13_31)

Checking next happening (time 231)
Deleting (carrying t1 p1)
Adding (empty t1)
Adding (at p1 c_13_31)

Checking next happening (time 232)
Deleting (at t1 c_13_31)
Adding (at t1 c_13_30)

Checking next happening (time 233)
Deleting (at p2 c_13_30)
Deleting (empty t1)
Adding (carrying t1 p2)

Checking next happening (time 234)
Deleting (at t1 c_13_30)
Adding (at t1 c_13_31)

Checking next happening (time 235)
Deleting (at t1 c_13_31)
Adding (at t1 c_14_31)

Checking next happening (time 236)
Deleting (at t1 c_14_31)
Adding (at t1 c_15_31)

Checking next happening (time 237)
Deleting (at t1 c_15_31)
Adding (at t1 c_16_31)

Checking next happening (time 238)
Deleting (at t1 c_16_31)
Adding (at t1 c_17_31)

Checking next happening (time 239)
Deleting (at t1 c_17_31)
Adding (at t1 c_18_31)

Checking next happening (time 240)
Deleting (carrying t1 p2)
Adding (empty t1)
Adding (at p2 c_18_31)

Checking next happening (time 241)
Deleting (at t1 c_18_31)
Adding (at t1 c_17_31)

Checking next happening (time 242)
Deleting (at t1 c_17_31)
Adding (at t1 c_16_31)

Checking next happening (time 243)
Deleting (at t1 c_16_31)
Adding (at t1 c_15_31)

Checking next happening (time 244)
Deleting (at t1 c_15_31)
Adding (at t1 c_14_31)

Checking next happening (time 245)
Deleting (at t1 c_14_31)
Adding (at t1 c_13_31)

Checking next happening (time 246)
Deleting (at p1 c_13_31)
Deleting (empty t1)
Adding (carrying t1 p1)

Checking next happening (time 247)
Deleting (at t1 c_13_31)
Adding (at t1 c_14_31)

Checking next happening (time 248)
Deleting (at t1 c_14_31)
Adding (at t1 c_15_31)

Checking next happening (time 249)
Deleting (at t1 c_15_31)
Adding (at t1 c_16_31)

Checking next happening (time 250)
Deleting (at t1 c_16_31)
Adding (at t1 c_17_31)

Checking next happening (time 251)
Deleting (at t1 c_17_31)
Adding (at t1 c_18_31)

Checking next happening (time 252)
Deleting (carrying t1 p1)
Adding (empty t1)
Adding (at p1 c_18_31)
Plan executed successfully - checking goal
Plan valid
Final value: 252 

Successful plans:
Value: 252
 /home/jfan5/Safety-gen/runs/benchmark/optic/delivery_20260215_225923/delivery/optic_results/delivery_size34_packages1_seed34001.plan 252
